CMD:
./solvers/bin/cadical --plain --no-reduce -t 1600 ./data/cnfs//6s403rb1342/6s403rb1342.59.cnf

c --- [ banner ] -------------------------------------------------------------
c 
c CaDiCaL SAT Solver
c Copyright (c) 2016-2024
c A. Biere, M. Fleury, N. Froleyks, K. Fazekas, F. Pollitt, T. Faller
c JKU Linz, University of Freiburg, TU Wien
c 
c Version 2.1.3 5296d3d2a9bf48c154ab2acb5e44625776d821bf
c g++ (Gentoo 12.3.1_p20230526 p2) 12.3.1 20230526 -Wall -Wextra -O3 -DNDEBUG
c Sat Aug 9 07:26:21 PDT 2025 Linux cedar2.int.cedar.computecanada.ca 5.14.0-362.24.2.el9_3.x86_64 x86_64
c 
c --- [ limit ] --------------------------------------------------------------
c 
c setting time limit to 1600 seconds real time (due to '-t 1600')
c 
c --- [ parsing input ] ------------------------------------------------------
c 
c reading DIMACS file from './data/cnfs//6s403rb1342/6s403rb1342.59.cnf'
c opening file to read './data/cnfs//6s403rb1342/6s403rb1342.59.cnf'
c found 'p cnf 2652102 7699028' header
c parsed 7699028 clauses in 1.20 seconds process time
c 
c --- [ options ] ------------------------------------------------------------
c 
c   --compact=false                (different from default 'true')
c   --decompose=false              (different from default 'true')
c   --deduplicate=false            (different from default 'true')
c   --elim=false                   (different from default 'true')
c   --probe=false                  (different from default 'true')
c   --reduce=false                 (different from default 'true')
c   --subsume=false                (different from default 'true')
c   --ternary=false                (different from default 'true')
c   --transred=false               (different from default 'true')
c   --vivify=false                 (different from default 'true')
c 
c --- [ solving ] ------------------------------------------------------------
c 
c time measured in process time since initialization
c 
c  seconds    reductions  redundant   irredundant
c          MB     restarts       trail         variables
c            level   conflicts       glue            remaining
c 
c *  1.20 1067  0 0   0    0    0  0% 0 6311376 1973052 74%
c {  1.22 1071  0 0   0    0    0  0% 0 6311376 1973052 74%
c i  1.24 1071 1477 0   0   16   13 24% 2 6311376 1973051 74%
c i  1.45 1074 1026 0  11  162  121 25% 3 6311376 1973050 74%
c i  1.54 1075 1264 0  13  222  177 27% 3 6311376 1973049 74%
c i  1.55 1075 1157 0  13  242  192 27% 3 6311376 1972776 74%
c i  1.55 1075 1151 0  13  243  192 27% 3 6311376 1972693 74%
c }  1.55 1075 1146 0  13  245  192 27% 3 6311376 1967999 74%
c 0  1.55 1075 1146 0  13  245  192 27% 3 6311376 1967999 74%
c 
c --- [ result ] -------------------------------------------------------------
c 
s UNSATISFIABLE
c 
c --- [ run-time profiling ] -------------------------------------------------
c 
c process time taken by individual solving procedures
c (percentage relative to process time for solving)
c 
c         1.20  348.26% parse
c         0.35   99.97% search
c         0.33   96.29% unstable
c         0.01    3.67% lucky
c         0.00    0.00% simplify
c   =================================
c         0.35   22.30% solve
c 
c last line shows process time for solving
c (percentage relative to total process time)
c 
c --- [ statistics ] ---------------------------------------------------------
c 
c chronological:               179        73.06 %  of conflicts
c conflicts:                   245       708.62    per second
c decisions:                 28181     81508.76    per second
c fixed:                    618249        23.31 %  of all variables
c learned:                     203        82.86 %  per conflict
c learned_lits:               1270       100.00 %  learned literals
c minimized:                     0         0.00 %  learned literals
c shrunken:                    159        12.52 %  learned literals
c minishrunken:                 37         2.91 %  learned literals
c otfs:                          5         2.04 %  of conflict
c propagations:            2903642         8.40 M  per second
c restarts:                     13        18.85    interval
c subsumed:                      5         0.00 %  of all clauses
c strengthened:                  5         0.00 %  of all clauses
c 
c seconds are measured in process time for solving
c 
c --- [ resources ] ----------------------------------------------------------
c 
c total process time since initialization:         1.55    seconds
c total real time since initialization:            1.56    seconds
c maximum resident set size of process:         1073.01    MB
c 
c --- [ shutting down ] ------------------------------------------------------
c 
c exit 20
